44305891544398482185014,14,1,2,02,5,1,2,012,10,1,2,07,11,1,2,03,7,1,2,03,8,1,2,012,3,1,2,03,8,1,2,06,10,1,2,015,5,1,2,06,13,1,2,015,14,1,2,012,1,1,2,010,8,1,2,012,8,1,2,04,4,1,2,02,11,1,2,015,5,1,2,013,3,1,2,07,12,1,2,012,1,1,2,03,12,1,2,01,8,1,2,03,4,1,2,010,1,1,2,04,1,1,2,08,3,1,2,05,10,1,2,010,7,1,2,013,1,1,2,03,1,1,2,03,12,1,2,02,13,1,2,012,4,1,2,010,1,1,2,012,3,1,2,012,4,1,2,06,9,1,2,07,14,1,2,01,8,1,2,010,15,1,2,013,15,1,2,05,2,1,2,01,11,1,2,010,10,1,2,05,8,1,2,04,12,1,2,07,7,1,2,07,14,1,2,014,13,1,2,0